catkin_ws/src/FUEL/fuel_planner/utils/lkh_tsp_solver/resource/UAV1/single.tsp
NAME : single
TYPE : ATSP
DIMENSION : 5
EDGE_WEIGHT_TYPE : EXPLICIT
EDGE_WEIGHT_FORMAT : FULL_MATRIX
EDGE_WEIGHT_SECTION
0 50231 50222 50112 143 
0 0 190 378 50000 
0 190 0 373 50000 
0 378 373 0 50000 
0 50000 50000 50000 0 
EOF