catkin_ws/src/FUEL/fuel_planner/utils/lkh_tsp_solver/resource/UAV1/single.txt
NAME : single.51077.tour
COMMENT : Length = 51077
COMMENT : Found by LKH [Keld Helsgaun] Fri May 20 19:35:01 2022
TYPE : TOUR
DIMENSION : 7
TOUR_SECTION
1
7
6
2
3
4
5
-1
EOF
